benchmarks_vrp/CMT5/tsp_classic/CMT5_10.vrp
NAME: CMT5_10
TYPE: CVRP
COMMENT: 1291.29 - Cluster Nr.10
DIMENSION: 13
CAPACITY: 200
EDGE_WEIGHT_TYPE: EUC_2D
NODE_COORD_TYPE: TWOD_COORDS
NODE_COORD_SECTION: 
8 55 20
10 60 12
9 66 14
4 55 5
2 63 23
6 51 21
11 65 20
1 55 20
3 60 15
5 35 35
12 59 15
13 62 24
7 54 10
DEPOT_SECTION: 
5
-1
DEMAND_SECTION: 
2 2
10 31
9 22
8 19
11 6
5 0
7 12
13 8
3 14
12 14
4 29
1 21
6 5
EOF
