benchmarks_vrp/CMT5/tsp_classic/CMT5_10.tour
NAME: CMT5_10 solution
TYPE: TOUR
TOUR_SECTION:
5 6 8 1 7 4 10 12 3 9 11 2 13 -1
-1
EOF